NAME : ManP-10-2
COMMENT : Pilot. 5 postmen. Max route 2941.15=4999.955m
TYPE : TSP
DIMENSION : 11
VEHICLES : 5
SCALE : 1000
DISTANCE : 4999.955
EDGE_WEIGHT_TYPE : EXPLICIT
EDGE_WEIGHT_FORMAT : UPPER_ROW
EDGE_WEIGHT_SECTION
400.518
656.157
369.310
271.783
458.119
778.560
1033.758
582.027
448.823
1222.721

865.000
764.388
666.861
823.027
1166.730
640.325
974.792
841.587
830.945

972.248
764.450
286.602
307.834
1498.256
1185.946
859.871
1688.876

213.238
716.933
722.977
1364.771
533.242
117.822
1553.075

509.135
515.179
1299.428
468.571
182.479
1488.391

351.436
1456.283
929.664
604.556
1646.903

1799.986
975.348
610.600
1990.606

992.441
1476.468
208.175

645.610
1028.249

1665.431

DEPOT_SECTION
1
-1
EOF
